n_res = 4;
rcap = [20, 17, 101, 94];
rtype = [1, 1, 2, 2];
n_tasks = 16;
modes = [ {1, 2}, {3, 4}, {5, 6}, {7, 8}, {9, 10}, {11, 12}, {13, 14}, {15, 16}, {17, 18}, {19, 20}, {21, 22}, {23, 24}, {25, 26}, {27, 28}, {29, 30}, {31, 32} ];
succ = [ {5, 13}, {9, 13, 14}, {4, 5, 6}, {8, 15}, {11, 14, 16}, {7, 9}, {8, 10, 11}, {14}, {12, 16}, {12, 13}, {12}, {15}, {15, 16}, {}, {}, {} ];
n_opt = 32;
dur = [6, 7, 9, 10, 9, 10, 1, 9, 2, 5, 9, 9, 10, 10, 3, 6, 5, 6, 3, 8, 4, 8, 4, 9, 2, 4, 4, 8, 4, 9, 2, 7];
rreq = [|  0,  8,  3,  3,  9,  0,  0,  0,  7,  5,  2,  0,  0,  6,  8,  6,  0,  4,  0,  5,  0, 10,  5,  4, 10,  9,  0,  0,  0,  0,  5,  2
        | 10,  0,  0,  0,  0,  6,  9,  9,  0,  0,  0, 10,  5,  0,  0,  0,  4,  0,  9,  0,  6,  0,  0,  0,  0,  0,  6,  4,  8,  5,  0,  0
        |  8,  5,  8,  6,  6,  6,  7,  3,  4,  3,  3,  7,  8,  7,  5,  4,  7,  7,  9,  4,  4,  2,  6,  4,  6,  6,  9,  3,  7,  6,  8,  6
        | 10,  9,  3,  2,  5,  4, 10,  8,  9,  3,  3,  2,  3,  3,  5,  5,  6,  1,  6,  5, 10,  9,  5,  5,  6,  3,  6,  5,  3,  2, 10, 10 |];
